n = 16;
m = 10;

G =
  [
    [ 0.0 0.0 0.0 0.0 0.0 0.0 0.0 0.0 0.0 0.0 0.0 0.0 0.0 0.0 0.0 0.0 ]
    [ 0.0 0.0 0.0 0.0 0.0 0.0 0.0 0.0 0.0 0.0 0.0 0.0 0.0 0.0 0.0 0.07 ]
    [ 0.0 0.0 0.0 0.0 0.0 0.0 0.0 0.0 1.0 0.0 0.54 0.0 0.0 0.0 0.0 0.0 ]
    [ 0.0 0.0 0.0 0.0 0.0 0.0 0.0 0.0 0.0 0.0 0.0 0.0 0.0 0.0 0.0 0.79 ]
    [ 0.0 0.0 0.0 0.0 0.0 0.77 0.0 0.0 0.0 0.0 0.0 1.0 0.0 0.0 0.0 0.0 ]
    [ 0.0 0.0 0.0 0.0 0.77 0.0 0.0 0.0 0.0 0.0 0.3 0.0 0.0 0.09 0.0 0.0 ]
    [ 0.0 0.0 0.0 0.0 0.0 0.0 0.0 0.86 0.0 0.0 0.0 0.86 0.0 0.0 0.19 0.0 ]
    [ 0.0 0.0 0.0 0.0 0.0 0.0 0.86 0.0 0.0 0.0 0.0 0.0 0.0 0.0 0.84 0.0 ]
    [ 0.0 0.0 1.0 0.0 0.0 0.0 0.0 0.0 0.0 0.0 0.0 0.0 0.0 0.0 0.0 0.73 ]
    [ 0.0 0.0 0.0 0.0 0.0 0.0 0.0 0.0 0.0 0.0 0.0 0.0 0.0 0.0 0.0 0.0 ]
    [ 0.0 0.0 0.54 0.0 0.0 0.3 0.0 0.0 0.0 0.0 0.0 0.0 0.0 0.32 0.0 0.32 ]
    [ 0.0 0.0 0.0 0.0 1.0 0.0 0.86 0.0 0.0 0.0 0.0 0.0 0.0 0.31 0.0 0.0 ]
    [ 0.0 0.0 0.0 0.0 0.0 0.0 0.0 0.0 0.0 0.0 0.0 0.0 0.0 0.0 0.0 0.38 ]
    [ 0.0 0.0 0.0 0.0 0.0 0.09 0.0 0.0 0.0 0.0 0.32 0.31 0.0 0.0 0.0 0.0 ]
    [ 0.0 0.0 0.0 0.0 0.0 0.0 0.19 0.84 0.0 0.0 0.0 0.0 0.0 0.0 0.0 0.0 ]
    [ 0.0 0.07 0.0 0.79 0.0 0.0 0.0 0.0 0.73 0.0 0.32 0.0 0.38 0.0 0.0 0.0 ]
  ];

H =
  [
    [ 0.0 0.0 0.0 0.65 0.31 0.46 0.46 0.0 0.0 0.0 ]
    [ 0.0 0.0 0.0 0.82 0.0 0.0 0.28 0.0 0.0 0.0 ]
    [ 0.0 0.0 0.0 0.37 0.81 0.77 0.94 0.0 0.0 0.06 ]
    [ 0.65 0.82 0.37 0.0 0.54 0.0 0.0 0.05 0.0 0.32 ]
    [ 0.31 0.0 0.81 0.54 0.0 0.0 0.0 0.0 0.0 0.89 ]
    [ 0.46 0.0 0.77 0.0 0.0 0.0 0.38 0.22 0.0 0.0 ]
    [ 0.46 0.28 0.94 0.0 0.0 0.38 0.0 0.35 0.0 0.0 ]
    [ 0.0 0.0 0.0 0.05 0.0 0.22 0.35 0.0 0.0 0.26 ]
    [ 0.0 0.0 0.0 0.0 0.0 0.0 0.0 0.0 0.0 0.0 ]
    [ 0.0 0.0 0.06 0.32 0.89 0.0 0.0 0.26 0.0 0.0 ]
  ];